c SAT Generator for power-law distributed variable frequencies
c -g u -v 20 -c 91 -k 3 -p 2.750000 -b 3.200000 -f /home/schmidt/Devel/ni-kop-sat/data/ensemble/ruf20-91/ruf20-91-477 -u 1 -U 1 -s 2642829824
p cnf 20 91
-5 16 -19 0
1 19 -20 0
4 -17 -19 0
12 -13 17 0
-7 15 -17 0
-3 4 -20 0
-3 -10 15 0
-7 -8 18 0
-2 16 18 0
-2 12 -17 0
-1 -15 -16 0
2 3 -10 0
15 16 -18 0
2 -3 -14 0
-4 12 -14 0
12 -15 -16 0
2 -14 -17 0
-14 17 20 0
-6 -11 -18 0
-6 7 -19 0
-4 10 -20 0
-7 11 -17 0
-6 11 -15 0
-5 -11 18 0
11 13 -20 0
2 5 -8 0
8 -10 -17 0
-4 -13 15 0
4 -13 -19 0
-1 -8 -12 0
7 -13 -18 0
-6 7 16 0
2 3 16 0
5 -9 14 0
-3 18 -19 0
3 -5 14 0
7 8 -19 0
-12 -15 16 0
-4 7 -9 0
5 9 -18 0
15 -16 18 0
-11 15 18 0
-4 -12 19 0
5 -16 -19 0
-9 -10 12 0
-3 11 -17 0
3 -10 18 0
-1 -12 -17 0
-8 -13 -19 0
6 -13 -18 0
-3 -13 20 0
-15 16 19 0
2 -14 18 0
-1 11 -19 0
1 18 20 0
-3 -6 9 0
-10 -15 -20 0
-3 -9 12 0
2 3 5 0
2 8 -14 0
-3 -6 12 0
2 -6 11 0
8 10 -17 0
3 8 13 0
7 -11 13 0
-1 18 -19 0
-1 -13 17 0
1 -2 7 0
7 9 -10 0
-6 -15 16 0
-4 16 18 0
12 14 -15 0
-1 2 -15 0
1 -2 15 0
9 -15 -20 0
4 7 -11 0
-1 5 -7 0
3 5 -10 0
13 15 18 0
-4 -9 -16 0
2 -4 -15 0
2 6 -12 0
11 12 15 0
3 12 -17 0
1 -2 5 0
-13 -17 -20 0
6 -12 14 0
7 14 -17 0
-15 16 18 0
-10 -13 -20 0
5 17 20 0
